c uprop, v00.0, 
c reading from data/prog823.c.cnf
c done reading: 0.002666
p cnf 151 703
-58 -79 0
-58 -75 0
58 75 79 0
-52 75 79 0
-52 -75 -79 0
52 75 -79 0
52 -75 79 0
58 -70 0
-68 -70 0
-58 68 70 0
-58 -63 68 0
58 -63 -68 0
58 63 68 0
-58 63 -68 0
-59 70 0
-56 -59 0
56 59 -70 0
-54 56 -70 0
-54 -56 70 0
54 56 70 0
54 -56 -70 0
-53 59 0
-50 -53 0
50 53 -59 0
50 -59 -77 0
-50 59 -77 0
50 59 77 0
-50 -59 77 0
53 -81 0
-72 -81 0
-53 72 81 0
-53 72 -82 0
53 -72 -82 0
53 72 82 0
-53 -72 82 0
81 -83 0
-65 -83 0
65 -81 83 0
65 -81 -84 0
-65 81 -84 0
65 81 84 0
-65 -81 84 0
83 -85 0
-61 -85 0
61 -83 85 0
61 -83 -86 0
-61 83 -86 0
61 83 86 0
-61 -83 86 0
75 -87 0
79 -87 0
-75 -79 87 0
-75 -79 -88 0
75 79 -88 0
-75 79 88 0
75 -79 88 0
-68 -75 89 0
-68 -87 89 0
-75 -87 89 0
68 75 -89 0
68 87 -89 0
75 87 -89 0
68 -89 -90 0
75 -89 -90 0
87 -89 -90 0
-68 89 90 0
-75 89 90 0
-87 89 90 0
-68 -75 -87 90 0
68 75 87 -90 0
-56 -68 91 0
-56 -89 91 0
-68 -89 91 0
56 68 -91 0
56 89 -91 0
68 89 -91 0
56 -91 -92 0
68 -91 -92 0
89 -91 -92 0
-56 91 92 0
-68 91 92 0
-89 91 92 0
-56 -68 -89 92 0
56 68 89 -92 0
-50 -56 93 0
-50 -91 93 0
-56 -91 93 0
50 56 -93 0
50 91 -93 0
56 91 -93 0
-48 50 -93 0
-48 56 -93 0
-48 91 -93 0
48 -50 93 0
48 -56 93 0
48 -91 93 0
48 -50 -56 -91 0
-48 50 56 91 0
47 -50 -72 0
47 -72 -93 0
47 -50 -93 0
-47 50 72 0
-47 72 93 0
-47 50 93 0
-46 -47 72 0
-46 -47 50 0
-46 -47 93 0
46 47 -72 0
46 47 -50 0
46 47 -93 0
46 -50 -72 -93 0
-46 50 72 93 0
45 -65 -72 0
45 -47 -65 0
45 -47 -72 0
-45 65 72 0
-45 47 65 0
-45 47 72 0
-44 -45 65 0
-44 -45 72 0
-44 -45 47 0
44 45 -65 0
44 45 -72 0
44 45 -47 0
44 -47 -65 -72 0
-44 47 65 72 0
43 -61 -65 0
43 -45 -61 0
43 -45 -65 0
-43 61 65 0
-43 45 61 0
-43 45 65 0
-43 61 -78 0
-43 65 -78 0
-43 45 -78 0
43 -61 78 0
43 -65 78 0
43 -45 78 0
-45 -61 -65 78 0
45 61 65 -78 0
61 -74 0
43 -74 0
-43 -61 74 0
-43 -61 -67 0
43 61 -67 0
43 -61 67 0
-43 61 67 0
-55 -79 0
-55 -88 0
55 79 88 0
-49 79 88 0
-49 -79 -88 0
49 -79 88 0
49 79 -88 0
55 -71 0
-71 -90 0
-55 71 90 0
-55 -64 90 0
55 -64 -90 0
55 64 90 0
-55 64 -90 0
-60 71 0
-60 -92 0
60 -71 92 0
-42 -71 92 0
-42 71 -92 0
42 71 92 0
42 -71 -92 0
-41 60 0
-41 -48 0
41 48 -60 0
-40 48 -60 0
-40 -48 60 0
40 48 60 0
40 -48 -60 0
-37 41 0
-37 -46 0
37 -41 46 0
-34 -41 46 0
-34 41 -46 0
34 41 46 0
34 -41 -46 0
-33 37 0
-33 -44 0
33 -37 44 0
-32 -37 44 0
-32 37 -44 0
32 37 44 0
32 -37 -44 0
-31 33 0
-31 -78 0
31 -33 78 0
-30 -33 78 0
-30 33 -78 0
30 33 78 0
30 -33 -78 0
-29 31 0
-29 -67 0
29 -31 67 0
-28 -31 67 0
-28 31 -67 0
28 31 67 0
28 -31 -67 0
-27 29 0
-27 -74 0
27 -29 74 0
-26 -29 74 0
-26 29 -74 0
26 29 74 0
26 -29 -74 0
-25 -38 0
25 38 0
-35 -94 0
35 94 0
-95 -97 0
95 97 0
-98 -100 0
98 100 0
-101 -103 0
101 103 0
-104 -105 0
104 105 0
38 -106 0
-38 106 0
-35 107 0
35 -107 0
35 -107 -108 0
-107 -108 0
-35 107 108 0
107 108 0
-38 -95 109 0
-95 -107 109 0
-38 -107 109 0
38 95 -109 0
95 107 -109 0
38 107 -109 0
95 -109 -110 0
38 -109 -110 0
107 -109 -110 0
-95 109 110 0
-38 109 110 0
-107 109 110 0
-38 -95 -107 110 0
38 95 107 -110 0
-35 -98 111 0
-98 -109 111 0
-35 -109 111 0
35 98 -111 0
98 109 -111 0
35 109 -111 0
98 -111 -112 0
35 -111 -112 0
109 -111 -112 0
-98 111 112 0
-35 111 112 0
-109 111 112 0
-35 -98 -109 112 0
35 98 109 -112 0
-95 -101 113 0
-101 -111 113 0
-95 -111 113 0
95 101 -113 0
101 111 -113 0
95 111 -113 0
101 -113 -114 0
95 -113 -114 0
111 -113 -114 0
-101 113 114 0
-95 113 114 0
-111 113 114 0
-95 -101 -111 114 0
95 101 111 -114 0
-98 -104 115 0
-104 -113 115 0
-98 -113 115 0
98 104 -115 0
104 113 -115 0
98 113 -115 0
104 -115 -116 0
98 -115 -116 0
113 -115 -116 0
-104 115 116 0
-98 115 116 0
-113 115 116 0
-98 -104 -113 116 0
98 104 113 -116 0
101 -117 0
115 -117 0
-101 -115 117 0
-101 -115 -118 0
101 115 -118 0
-101 115 118 0
101 -115 118 0
104 -119 0
117 -119 0
-104 -117 119 0
-104 -117 -120 0
104 117 -120 0
-104 117 120 0
104 -117 120 0
108 -121 0
-108 121 0
-110 122 0
110 -122 0
110 -122 -123 0
-122 -123 0
-110 122 123 0
122 123 0
-38 -112 124 0
-112 -122 124 0
-38 -122 124 0
38 112 -124 0
112 122 -124 0
38 122 -124 0
112 -124 -125 0
38 -124 -125 0
122 -124 -125 0
-112 124 125 0
-38 124 125 0
-122 124 125 0
-38 -112 -122 125 0
38 112 122 -125 0
-35 -114 126 0
-114 -124 126 0
-35 -124 126 0
35 114 -126 0
114 124 -126 0
35 124 -126 0
114 -126 -127 0
35 -126 -127 0
124 -126 -127 0
-114 126 127 0
-35 126 127 0
-124 126 127 0
-35 -114 -124 127 0
35 114 124 -127 0
-95 -116 128 0
-116 -126 128 0
-95 -126 128 0
95 116 -128 0
116 126 -128 0
95 126 -128 0
116 -128 -129 0
95 -128 -129 0
126 -128 -129 0
-116 128 129 0
-95 128 129 0
-126 128 129 0
-95 -116 -126 129 0
95 116 126 -129 0
-98 -118 130 0
-118 -128 130 0
-98 -128 130 0
98 118 -130 0
118 128 -130 0
98 128 -130 0
118 -130 -131 0
98 -130 -131 0
128 -130 -131 0
-118 130 131 0
-98 130 131 0
-128 130 131 0
-98 -118 -128 131 0
98 118 128 -131 0
-101 -120 132 0
-120 -130 132 0
-101 -130 132 0
101 120 -132 0
120 130 -132 0
101 130 -132 0
120 -132 -133 0
101 -132 -133 0
130 -132 -133 0
-120 132 133 0
-101 132 133 0
-130 132 133 0
-101 -120 -130 133 0
101 120 130 -133 0
-104 -119 134 0
-119 -132 134 0
-104 -132 134 0
104 119 -134 0
119 132 -134 0
104 132 -134 0
119 -134 -135 0
104 -134 -135 0
132 -134 -135 0
-119 134 135 0
-104 134 135 0
-132 134 135 0
-104 -119 -132 135 0
104 119 132 -135 0
-80 123 0
80 -123 0
76 -125 0
-76 125 0
-69 -76 125 0
-69 -76 0
69 76 -125 0
69 76 0
-38 57 -127 0
57 -76 -127 0
-38 57 -76 0
38 -57 127 0
-57 76 127 0
38 -57 76 0
-51 -57 127 0
38 -51 -57 0
-51 -57 76 0
51 57 -127 0
-38 51 57 0
51 57 -76 0
-38 51 -76 -127 0
38 -51 76 127 0
-35 73 -129 0
-57 73 -129 0
-35 -57 73 0
35 -73 129 0
57 -73 129 0
35 57 -73 0
-66 -73 129 0
35 -66 -73 0
57 -66 -73 0
66 73 -129 0
-35 66 73 0
-57 66 73 0
-35 -57 66 -129 0
35 57 -66 129 0
62 -95 -131 0
62 -73 -131 0
62 -73 -95 0
-62 95 131 0
-62 73 131 0
-62 73 95 0
-62 131 -136 0
-62 95 -136 0
-62 73 -136 0
62 -131 136 0
62 -95 136 0
62 -73 136 0
-73 -95 -131 136 0
73 95 131 -136 0
-98 -133 137 0
-62 -133 137 0
-62 -98 137 0
98 133 -137 0
62 133 -137 0
62 98 -137 0
-39 133 -137 0
-39 98 -137 0
-39 62 -137 0
39 -133 137 0
39 -98 137 0
39 -62 137 0
39 -62 -98 -133 0
-39 62 98 133 0
36 -101 -135 0
36 -135 -137 0
36 -101 -137 0
-36 101 135 0
-36 135 137 0
-36 101 137 0
-36 -96 135 0
-36 -96 101 0
-36 -96 137 0
36 96 -135 0
36 96 -101 0
36 96 -137 0
96 -101 -135 -137 0
-96 101 135 137 0
99 -104 -134 0
-36 99 -134 0
-36 99 -104 0
-99 104 134 0
36 -99 134 0
36 -99 104 0
-99 -102 134 0
-99 -102 104 0
36 -99 -102 0
99 102 -134 0
99 102 -104 0
-36 99 102 0
-36 102 -104 -134 0
36 -102 104 134 0
69 -138 0
-69 138 0
-51 139 0
51 -139 0
51 -139 -140 0
-139 -140 0
-51 139 140 0
139 140 0
-38 -66 141 0
-66 -139 141 0
-38 -139 141 0
38 66 -141 0
66 139 -141 0
38 139 -141 0
66 -141 -142 0
38 -141 -142 0
139 -141 -142 0
-66 141 142 0
-38 141 142 0
-139 141 142 0
-38 -66 -139 142 0
38 66 139 -142 0
-35 -136 143 0
-136 -141 143 0
-35 -141 143 0
35 136 -143 0
136 141 -143 0
35 141 -143 0
136 -143 -144 0
35 -143 -144 0
141 -143 -144 0
-136 143 144 0
-35 143 144 0
-141 143 144 0
-35 -136 -141 144 0
35 136 141 -144 0
-39 -95 145 0
-39 -143 145 0
-95 -143 145 0
39 95 -145 0
39 143 -145 0
95 143 -145 0
39 -145 -146 0
95 -145 -146 0
143 -145 -146 0
-39 145 146 0
-95 145 146 0
-143 145 146 0
-39 -95 -143 146 0
39 95 143 -146 0
-96 -98 147 0
-96 -145 147 0
-98 -145 147 0
96 98 -147 0
96 145 -147 0
98 145 -147 0
96 -147 -148 0
98 -147 -148 0
145 -147 -148 0
-96 147 148 0
-98 147 148 0
-145 147 148 0
-96 -98 -145 148 0
96 98 145 -148 0
-101 -102 149 0
-102 -147 149 0
-101 -147 149 0
101 102 -149 0
102 147 -149 0
101 147 -149 0
102 -149 -150 0
101 -149 -150 0
147 -149 -150 0
-102 149 150 0
-101 149 150 0
-147 149 150 0
-101 -102 -147 150 0
101 102 147 -150 0
-99 -104 151 0
-99 -149 151 0
-104 -149 151 0
99 104 -151 0
99 149 -151 0
104 149 -151 0
-24 99 -151 0
-24 104 -151 0
-24 149 -151 0
24 -99 151 0
24 -104 151 0
24 -149 151 0
24 -99 -104 -149 0
-24 99 104 149 0
-23 -106 0
23 106 0
-22 -121 0
22 121 0
-21 -80 0
21 80 0
-20 -138 0
20 138 0
-19 -140 0
19 140 0
-18 -142 0
18 142 0
-17 -144 0
17 144 0
-16 -146 0
16 146 0
-15 -148 0
15 148 0
-14 -150 0
14 150 0
-13 -24 0
13 24 0
-12 -151 0
12 151 0
-11 79 0
-11 106 0
11 -79 -106 0
-79 -106 0
79 106 0
10 -88 -121 0
10 -11 -88 0
10 -11 -121 0
-10 88 121 0
-10 11 88 0
-10 11 121 0
-10 88 0
-10 121 0
-10 11 0
11 88 121 0
9 -80 -90 0
9 -10 -90 0
9 -10 -80 0
-9 80 90 0
-9 10 90 0
-9 10 80 0
-9 90 0
-9 80 0
-9 10 0
10 80 90 0
8 -92 -138 0
8 -9 -92 0
8 -9 -138 0
-8 92 138 0
-8 9 92 0
-8 9 138 0
-8 92 0
-8 138 0
-8 9 0
9 92 138 0
7 -48 -140 0
7 -8 -48 0
7 -8 -140 0
-7 48 140 0
-7 8 48 0
-7 8 140 0
-7 48 0
-7 140 0
-7 8 0
8 48 140 0
6 -46 -142 0
6 -7 -46 0
6 -7 -142 0
-6 46 142 0
-6 7 46 0
-6 7 142 0
6 -46 0
6 -142 0
6 -7 0
-7 -46 -142 0
5 -44 -144 0
5 -6 -44 0
5 -6 -144 0
-5 44 144 0
-5 6 44 0
-5 6 144 0
5 -44 0
5 -144 0
5 -6 0
-6 -44 -144 0
4 -78 -146 0
4 -5 -78 0
4 -5 -146 0
-4 78 146 0
-4 5 78 0
-4 5 146 0
4 -78 0
4 -146 0
4 -5 0
-5 -78 -146 0
3 -67 -148 0
3 -4 -67 0
3 -4 -148 0
-3 67 148 0
-3 4 67 0
-3 4 148 0
3 -67 0
3 -148 0
3 -4 0
-4 -67 -148 0
2 -74 -150 0
2 -3 -74 0
2 -3 -150 0
-2 74 150 0
-2 3 74 0
-2 3 150 0
2 -74 0
2 -150 0
2 -3 0
-3 -74 -150 0
-1 24 0
-1 2 0
1 -2 -24 0
2 -24 0
-2 24 0
-1 -151 0
1 -151 0
-1 151 0
